TYPE : Vertex Cover
DIMENSION: 24
EDGE_DATA_SECTION:
0 1
0 7
0 14
0 15
0 19
0 20
0 22
0 23
1 3
1 5
1 6
1 23
2 7
2 13
2 14
2 17
2 18
2 21
2 22
3 4
3 7
3 13
3 23
4 7
4 12
4 15
4 18
4 22
4 23
5 14
5 17
5 18
5 21
6 9
6 13
6 16
6 20
6 22
6 23
7 8
7 9
7 12
7 17
7 18
7 19
7 22
7 23
8 9
8 10
8 13
8 14
8 21
9 10
9 16
9 18
9 19
9 22
9 23
10 15
10 18
10 19
10 22
11 14
11 16
12 20
13 14
13 18
13 22
15 17
15 18
15 23
16 22
16 23
17 21
18 19
18 20
18 21
18 22
18 23
19 20
20 21
22 23
-1
VERTEX_DEGREE:
8.0 5.0 7.0 5.0 7.0 5.0 7.0 12.0 6.0 9.0 6.0 2.0 3.0 7.0 6.0 6.0 5.0 5.0 13.0 6.0 6.0 6.0 11.0 11.0
VERTEX_COVER:
0 1 4 7 9 10 13 14 16 17 18 20 21 22 23
EOF
